c nIsolatedPIs 0
c maxPI 32
p cnf 263 694
c gate 33 -15 -31 0
-15 -33 0
-31 -33 0
15 31 33 0
c gate 34 15 31 0
15 -34 0
31 -34 0
-15 -31 34 0
c gate 35 -33 -34 0
-33 -35 0
-34 -35 0
33 34 35 0
c gate 36 -14 -30 0
-14 -36 0
-30 -36 0
14 30 36 0
c gate 37 14 30 0
14 -37 0
30 -37 0
-14 -30 37 0
c gate 38 -36 -37 0
-36 -38 0
-37 -38 0
36 37 38 0
c gate 39 -13 -29 0
-13 -39 0
-29 -39 0
13 29 39 0
c gate 40 13 29 0
13 -40 0
29 -40 0
-13 -29 40 0
c gate 41 -12 -28 0
-12 -41 0
-28 -41 0
12 28 41 0
c gate 42 -9 -25 0
-9 -42 0
-25 -42 0
9 25 42 0
c gate 43 8 24 0
8 -43 0
24 -43 0
-8 -24 43 0
c gate 44 7 -23 0
7 -44 0
-23 -44 0
-7 23 44 0
c gate 45 -7 23 0
-7 -45 0
23 -45 0
7 -23 45 0
c gate 46 -44 -45 0
-44 -46 0
-45 -46 0
44 45 46 0
c gate 47 -6 -22 0
-6 -47 0
-22 -47 0
6 22 47 0
c gate 48 6 -22 0
6 -48 0
-22 -48 0
-6 22 48 0
c gate 49 -6 22 0
-6 -49 0
22 -49 0
6 -22 49 0
c gate 50 -48 -49 0
-48 -50 0
-49 -50 0
48 49 50 0
c gate 51 5 21 0
5 -51 0
21 -51 0
-5 -21 51 0
c gate 52 5 -21 0
5 -52 0
-21 -52 0
-5 21 52 0
c gate 53 -5 21 0
-5 -53 0
21 -53 0
5 -21 53 0
c gate 54 -52 -53 0
-52 -54 0
-53 -54 0
52 53 54 0
c gate 55 4 20 0
4 -55 0
20 -55 0
-4 -20 55 0
c gate 56 -4 -20 0
-4 -56 0
-20 -56 0
4 20 56 0
c gate 57 3 19 0
3 -57 0
19 -57 0
-3 -19 57 0
c gate 58 1 17 0
1 -58 0
17 -58 0
-1 -17 58 0
c gate 59 2 18 0
2 -59 0
18 -59 0
-2 -18 59 0
c gate 60 -58 -59 0
-58 -60 0
-59 -60 0
58 59 60 0
c gate 61 -3 19 0
-3 -61 0
19 -61 0
3 -19 61 0
c gate 62 3 -19 0
3 -62 0
-19 -62 0
-3 19 62 0
c gate 63 -61 -62 0
-61 -63 0
-62 -63 0
61 62 63 0
c gate 64 -60 -63 0
-60 -64 0
-63 -64 0
60 63 64 0
c gate 65 -57 -64 0
-57 -65 0
-64 -65 0
57 64 65 0
c gate 66 -56 -65 0
-56 -66 0
-65 -66 0
56 65 66 0
c gate 67 -55 -66 0
-55 -67 0
-66 -67 0
55 66 67 0
c gate 68 -2 -18 0
-2 -68 0
-18 -68 0
2 18 68 0
c gate 69 -57 68 0
-57 -69 0
68 -69 0
57 -68 69 0
c gate 70 -55 69 0
-55 -70 0
69 -70 0
55 -69 70 0
c gate 71 -67 -70 0
-67 -71 0
-70 -71 0
67 70 71 0
c gate 72 -54 71 0
-54 -72 0
71 -72 0
54 -71 72 0
c gate 73 -51 -72 0
-51 -73 0
-72 -73 0
51 72 73 0
c gate 74 -50 73 0
-50 -74 0
73 -74 0
50 -73 74 0
c gate 75 -47 -74 0
-47 -75 0
-74 -75 0
47 74 75 0
c gate 76 -46 -75 0
-46 -76 0
-75 -76 0
46 75 76 0
c gate 77 -8 -24 0
-8 -77 0
-24 -77 0
8 24 77 0
c gate 78 -7 -23 0
-7 -78 0
-23 -78 0
7 23 78 0
c gate 79 -77 -78 0
-77 -79 0
-78 -79 0
77 78 79 0
c gate 80 -76 79 0
-76 -80 0
79 -80 0
76 -79 80 0
c gate 81 -43 -80 0
-43 -81 0
-80 -81 0
43 80 81 0
c gate 82 -42 -81 0
-42 -82 0
-81 -82 0
42 81 82 0
c gate 83 9 25 0
9 -83 0
25 -83 0
-9 -25 83 0
c gate 84 10 26 0
10 -84 0
26 -84 0
-10 -26 84 0
c gate 85 -83 -84 0
-83 -85 0
-84 -85 0
83 84 85 0
c gate 86 -82 85 0
-82 -86 0
85 -86 0
82 -85 86 0
c gate 87 -11 -27 0
-11 -87 0
-27 -87 0
11 27 87 0
c gate 88 -10 -26 0
-10 -88 0
-26 -88 0
10 26 88 0
c gate 89 -87 -88 0
-87 -89 0
-88 -89 0
87 88 89 0
c gate 90 -86 89 0
-86 -90 0
89 -90 0
86 -89 90 0
c gate 91 11 27 0
11 -91 0
27 -91 0
-11 -27 91 0
c gate 92 12 28 0
12 -92 0
28 -92 0
-12 -28 92 0
c gate 93 -91 -92 0
-91 -93 0
-92 -93 0
91 92 93 0
c gate 94 -90 93 0
-90 -94 0
93 -94 0
90 -93 94 0
c gate 95 -41 -94 0
-41 -95 0
-94 -95 0
41 94 95 0
c gate 96 -40 -95 0
-40 -96 0
-95 -96 0
40 95 96 0
c gate 97 -39 -96 0
-39 -97 0
-96 -97 0
39 96 97 0
c gate 98 38 -97 0
38 -98 0
-97 -98 0
-38 97 98 0
c gate 99 -36 -98 0
-36 -99 0
-98 -99 0
36 98 99 0
c gate 100 35 99 0
35 -100 0
99 -100 0
-35 -99 100 0
c gate 101 -40 -92 0
-40 -101 0
-92 -101 0
40 92 101 0
c gate 102 38 -101 0
38 -102 0
-101 -102 0
-38 101 102 0
c gate 103 -37 -102 0
-37 -103 0
-102 -103 0
37 102 103 0
c gate 104 35 -103 0
35 -104 0
-103 -104 0
-35 103 104 0
c gate 105 -99 -104 0
-99 -105 0
-104 -105 0
99 104 105 0
c gate 106 -100 -105 0
-100 -106 0
-105 -106 0
100 105 106 0
c gate 107 99 103 0
99 -107 0
103 -107 0
-99 -103 107 0
c gate 108 -106 -107 0
-106 -108 0
-107 -108 0
106 107 108 0
c gate 109 -87 -91 0
-87 -109 0
-91 -109 0
87 91 109 0
c gate 110 -10 26 0
-10 -110 0
26 -110 0
10 -26 110 0
c gate 111 -9 25 0
-9 -111 0
25 -111 0
9 -25 111 0
c gate 112 -2 18 0
-2 -112 0
18 -112 0
2 -18 112 0
c gate 113 -1 17 0
-1 -113 0
17 -113 0
1 -17 113 0
c gate 114 -112 -113 0
-112 -114 0
-113 -114 0
112 113 114 0
c gate 115 2 -18 0
2 -115 0
-18 -115 0
-2 18 115 0
c gate 116 -62 -115 0
-62 -116 0
-115 -116 0
62 115 116 0
c gate 117 -114 116 0
-114 -117 0
116 -117 0
114 -116 117 0
c gate 118 -61 -117 0
-61 -118 0
-117 -118 0
61 117 118 0
c gate 119 4 -20 0
4 -119 0
-20 -119 0
-4 20 119 0
c gate 120 -118 -119 0
-118 -120 0
-119 -120 0
118 119 120 0
c gate 121 -4 20 0
-4 -121 0
20 -121 0
4 -20 121 0
c gate 122 -120 -121 0
-120 -122 0
-121 -122 0
120 121 122 0
c gate 123 -52 -122 0
-52 -123 0
-122 -123 0
52 122 123 0
c gate 124 50 -53 0
50 -124 0
-53 -124 0
-50 53 124 0
c gate 125 -123 124 0
-123 -125 0
124 -125 0
123 -124 125 0
c gate 126 -48 -125 0
-48 -126 0
-125 -126 0
48 125 126 0
c gate 127 46 -126 0
46 -127 0
-126 -127 0
-46 126 127 0
c gate 128 -44 -127 0
-44 -128 0
-127 -128 0
44 127 128 0
c gate 129 -43 -77 0
-43 -129 0
-77 -129 0
43 77 129 0
c gate 130 -128 -129 0
-128 -130 0
-129 -130 0
128 129 130 0
c gate 131 8 -24 0
8 -131 0
-24 -131 0
-8 24 131 0
c gate 132 9 -25 0
9 -132 0
-25 -132 0
-9 25 132 0
c gate 133 -131 -132 0
-131 -133 0
-132 -133 0
131 132 133 0
c gate 134 -130 133 0
-130 -134 0
133 -134 0
130 -133 134 0
c gate 135 -111 -134 0
-111 -135 0
-134 -135 0
111 134 135 0
c gate 136 10 -26 0
10 -136 0
-26 -136 0
-10 26 136 0
c gate 137 -110 -136 0
-110 -137 0
-136 -137 0
110 136 137 0
c gate 138 -135 137 0
-135 -138 0
137 -138 0
135 -137 138 0
c gate 139 -110 -138 0
-110 -139 0
-138 -139 0
110 138 139 0
c gate 140 -109 -139 0
-109 -140 0
-139 -140 0
109 139 140 0
c gate 141 -39 -40 0
-39 -141 0
-40 -141 0
39 40 141 0
c gate 142 -35 -141 0
-35 -142 0
-141 -142 0
35 141 142 0
c gate 143 -41 -92 0
-41 -143 0
-92 -143 0
41 92 143 0
c gate 144 16 -32 0
16 -144 0
-32 -144 0
-16 32 144 0
c gate 145 -16 32 0
-16 -145 0
32 -145 0
16 -32 145 0
c gate 146 -144 -145 0
-144 -146 0
-145 -146 0
144 145 146 0
c gate 147 -143 146 0
-143 -147 0
146 -147 0
143 -146 147 0
c gate 148 -38 147 0
-38 -148 0
147 -148 0
38 -147 148 0
c gate 149 142 148 0
142 -149 0
148 -149 0
-142 -148 149 0
c gate 150 140 149 0
140 -150 0
149 -150 0
-140 -149 150 0
c gate 151 -133 137 0
-133 -151 0
137 -151 0
133 -137 151 0
c gate 152 -136 -151 0
-136 -152 0
-151 -152 0
136 151 152 0
c gate 153 109 -152 0
109 -153 0
-152 -153 0
-109 152 153 0
c gate 154 109 139 0
109 -154 0
139 -154 0
-109 -139 154 0
c gate 155 -140 -154 0
-140 -155 0
-154 -155 0
140 154 155 0
c gate 156 -153 -155 0
-153 -156 0
-155 -156 0
153 155 156 0
c gate 157 133 -137 0
133 -157 0
-137 -157 0
-133 137 157 0
c gate 158 -151 -157 0
-151 -158 0
-157 -158 0
151 157 158 0
c gate 159 135 -137 0
135 -159 0
-137 -159 0
-135 137 159 0
c gate 160 -138 -159 0
-138 -160 0
-159 -160 0
138 159 160 0
c gate 161 158 160 0
158 -161 0
160 -161 0
-158 -160 161 0
c gate 162 -158 -160 0
-158 -162 0
-160 -162 0
158 160 162 0
c gate 163 -42 -83 0
-42 -163 0
-83 -163 0
42 83 163 0
c gate 164 130 -163 0
130 -164 0
-163 -164 0
-130 163 164 0
c gate 165 -127 -130 0
-127 -165 0
-130 -165 0
127 130 165 0
c gate 166 -51 54 0
-51 -166 0
54 -166 0
51 -54 166 0
c gate 167 -122 166 0
-122 -167 0
166 -167 0
122 -166 167 0
c gate 168 -50 167 0
-50 -168 0
167 -168 0
50 -167 168 0
c gate 169 -125 -168 0
-125 -169 0
-168 -169 0
125 168 169 0
c gate 170 -127 169 0
-127 -170 0
169 -170 0
127 -169 170 0
c gate 171 -166 170 0
-166 -171 0
170 -171 0
166 -170 171 0
c gate 172 -34 -100 0
-34 -172 0
-100 -172 0
34 100 172 0
c gate 173 -146 172 0
-146 -173 0
172 -173 0
146 -172 173 0
c gate 174 146 -172 0
146 -174 0
-172 -174 0
-146 172 174 0
c gate 175 -173 -174 0
-173 -175 0
-174 -175 0
173 174 175 0
c gate 176 -34 103 0
-34 -176 0
103 -176 0
34 -103 176 0
c gate 177 146 176 0
146 -177 0
176 -177 0
-146 -176 177 0
c gate 178 -146 -176 0
-146 -178 0
-176 -178 0
146 176 178 0
c gate 179 -177 -178 0
-177 -179 0
-178 -179 0
177 178 179 0
c gate 180 175 179 0
175 -180 0
179 -180 0
-175 -179 180 0
c gate 181 -175 -179 0
-175 -181 0
-179 -181 0
175 179 181 0
c gate 182 -180 -181 0
-180 -182 0
-181 -182 0
180 181 182 0
c gate 183 -146 -182 0
-146 -183 0
-182 -183 0
146 182 183 0
c gate 184 171 -183 0
171 -184 0
-183 -184 0
-171 183 184 0
c gate 185 76 129 0
76 -185 0
129 -185 0
-76 -129 185 0
c gate 186 58 -112 0
58 -186 0
-112 -186 0
-58 112 186 0
c gate 187 -115 186 0
-115 -187 0
186 -187 0
115 -186 187 0
c gate 188 54 -71 0
54 -188 0
-71 -188 0
-54 71 188 0
c gate 189 -72 -188 0
-72 -189 0
-188 -189 0
72 188 189 0
c gate 190 51 -67 0
51 -190 0
-67 -190 0
-51 67 190 0
c gate 191 -51 67 0
-51 -191 0
67 -191 0
51 -67 191 0
c gate 192 -190 -191 0
-190 -192 0
-191 -192 0
190 191 192 0
c gate 193 189 192 0
189 -193 0
192 -193 0
-189 -192 193 0
c gate 194 -189 -192 0
-189 -194 0
-192 -194 0
189 192 194 0
c gate 195 -193 -194 0
-193 -195 0
-194 -195 0
193 194 195 0
c gate 196 58 68 0
58 -196 0
68 -196 0
-58 -68 196 0
c gate 197 63 196 0
63 -197 0
196 -197 0
-63 -196 197 0
c gate 198 -55 -56 0
-55 -198 0
-56 -198 0
55 56 198 0
c gate 199 69 -198 0
69 -199 0
-198 -199 0
-69 198 199 0
c gate 200 -65 199 0
-65 -200 0
199 -200 0
65 -199 200 0
c gate 201 -197 -200 0
-197 -201 0
-200 -201 0
197 200 201 0
c gate 202 195 201 0
195 -202 0
201 -202 0
-195 -201 202 0
c gate 203 50 67 0
50 -203 0
67 -203 0
-50 -67 203 0
c gate 204 73 -203 0
73 -204 0
-203 -204 0
-73 203 204 0
c gate 205 202 -204 0
202 -205 0
-204 -205 0
-202 204 205 0
c gate 206 -76 205 0
-76 -206 0
205 -206 0
76 -205 206 0
c gate 207 187 206 0
187 -207 0
206 -207 0
-187 -206 207 0
c gate 208 -185 -207 0
-185 -208 0
-207 -208 0
185 207 208 0
c gate 209 92 141 0
92 -209 0
141 -209 0
-92 -141 209 0
c gate 210 95 -209 0
95 -210 0
-209 -210 0
-95 209 210 0
c gate 211 108 -210 0
108 -211 0
-210 -211 0
-108 210 211 0
c gate 212 182 211 0
182 -212 0
211 -212 0
-182 -211 212 0
c gate 213 208 212 0
208 -213 0
212 -213 0
-208 -212 213 0
c gate 214 109 -137 0
109 -214 0
-137 -214 0
-109 137 214 0
c gate 215 143 163 0
143 -215 0
163 -215 0
-143 -163 215 0
c gate 216 214 215 0
214 -216 0
215 -216 0
-214 -215 216 0
c gate 217 185 216 0
185 -217 0
216 -217 0
-185 -216 217 0
c gate 218 185 -217 0
185 -218 0
-217 -218 0
-185 217 218 0
c gate 219 212 -218 0
212 -219 0
-218 -219 0
-212 218 219 0
c gate 220 -38 101 0
-38 -220 0
101 -220 0
38 -101 220 0
c gate 221 -102 -220 0
-102 -221 0
-220 -221 0
102 220 221 0
c gate 222 -38 97 0
-38 -222 0
97 -222 0
38 -97 222 0
c gate 223 -98 -222 0
-98 -223 0
-222 -223 0
98 222 223 0
c gate 224 221 223 0
221 -224 0
223 -224 0
-221 -223 224 0
c gate 225 -221 -223 0
-221 -225 0
-223 -225 0
221 223 225 0
c gate 226 95 -141 0
95 -226 0
-141 -226 0
-95 141 226 0
c gate 227 -225 -226 0
-225 -227 0
-226 -227 0
225 226 227 0
c gate 228 -224 -227 0
-224 -228 0
-227 -228 0
224 227 228 0
c gate 229 -106 -228 0
-106 -229 0
-228 -229 0
106 228 229 0
c gate 230 -180 -229 0
-180 -230 0
-229 -230 0
180 229 230 0
c gate 231 -181 -230 0
-181 -231 0
-230 -231 0
181 230 231 0
c gate 232 -219 231 0
-219 -232 0
231 -232 0
219 -231 232 0
c gate 233 -213 -232 0
-213 -233 0
-232 -233 0
213 232 233 0
c gate 234 184 -233 0
184 -234 0
-233 -234 0
-184 233 234 0
c gate 235 171 -176 0
171 -235 0
-176 -235 0
-171 176 235 0
c gate 236 173 235 0
173 -236 0
235 -236 0
-173 -235 236 0
c gate 237 167 170 0
167 -237 0
170 -237 0
-167 -170 237 0
c gate 238 -46 125 0
-46 -238 0
125 -238 0
46 -125 238 0
c gate 239 -237 -238 0
-237 -239 0
-238 -239 0
237 238 239 0
c gate 240 -236 239 0
-236 -240 0
239 -240 0
236 -239 240 0
c gate 241 -184 240 0
-184 -241 0
240 -241 0
184 -240 241 0
c gate 242 -234 -241 0
-234 -242 0
-241 -242 0
234 241 242 0
c gate 243 165 -242 0
165 -243 0
-242 -243 0
-165 242 243 0
c gate 244 -164 -243 0
-164 -244 0
-243 -244 0
164 243 244 0
c gate 245 -162 -244 0
-162 -245 0
-244 -245 0
162 244 245 0
c gate 246 -161 -245 0
-161 -246 0
-245 -246 0
161 245 246 0
c gate 247 -156 -246 0
-156 -247 0
-246 -247 0
156 246 247 0
c gate 248 -139 153 0
-139 -248 0
153 -248 0
139 -153 248 0
c gate 249 -140 -248 0
-140 -249 0
-248 -249 0
140 248 249 0
c gate 250 -247 249 0
-247 -250 0
249 -250 0
247 -249 250 0
c gate 251 -150 -250 0
-150 -251 0
-250 -251 0
150 250 251 0
c gate 252 -208 -218 0
-208 -252 0
-218 -252 0
208 218 252 0
c gate 253 -210 252 0
-210 -253 0
252 -253 0
210 -252 253 0
c gate 254 -228 -253 0
-228 -254 0
-253 -254 0
228 253 254 0
c gate 255 251 -254 0
251 -255 0
-254 -255 0
-251 254 255 0
c gate 256 -206 -217 0
-206 -256 0
-217 -256 0
206 217 256 0
c gate 257 -210 -256 0
-210 -257 0
-256 -257 0
210 256 257 0
c gate 258 -228 -257 0
-228 -258 0
-257 -258 0
228 257 258 0
c gate 259 -251 258 0
-251 -259 0
258 -259 0
251 -258 259 0
c gate 260 -255 -259 0
-255 -260 0
-259 -260 0
255 259 260 0
c gate 261 -108 260 0
-108 -261 0
260 -261 0
108 -260 261 0
c gate 262 108 -260 0
108 -262 0
-260 -262 0
-108 260 262 0
c gate 263 -261 -262 0
-261 -263 0
-262 -263 0
261 262 263 0
c PO
-263 0
